150
750
596	1
581	2
577	1
572	1
571	1
563	1
557	1
550	1
545	1
544	1
543	2
530	1
521	1
513	1
512	1
509	2
502	2
501	3
496	1
493	2
490	2
488	2
479	1
474	1
472	1
467	1
466	1
463	1
462	1
461	1
458	1
457	3
456	2
455	2
451	1
447	1
445	3
442	2
441	1
440	1
437	2
436	1
434	1
432	1
430	1
427	1
426	1
423	1
421	1
419	1
418	1
414	1
412	2
411	2
410	1
406	2
403	2
402	1
401	1
398	1
397	2
391	3
383	1
382	1
379	3
374	1
373	1
372	1
371	2
369	1
367	1
355	1
353	2
352	1
349	1
348	1
347	3
346	1
345	2
344	1
341	1
338	2
333	1
332	1
331	1
329	1
328	1
327	1
324	1
321	1
320	2
317	1
309	1
308	1
302	1
301	1
298	2
297	1
294	1
292	1
291	1
288	1
286	1
284	2
283	1
281	1
275	1
274	1
272	1
269	2
262	1
256	1
254	1
252	2
248	2
244	1
242	1
241	1
236	1
234	1
232	1
231	1
230	2
227	2
226	1
225	1
224	2
223	1
221	3
219	1
218	1
210	1
209	2
207	1
200	1
199	1
196	1
192	1
190	1
188	1
186	2
179	1
178	1
177	1
173	2
169	1
168	2
162	3
157	2
151	1
